70707
45,92,126,253,276,304,469,473,603,664,807,1063,1099,1143,1144,1179,1186,1248,1273,1307,1416,1566,1588,1603,1616,1716,1904,1964,2062,2082,2105,2193,2204,2280,2389,2472,2504,2673,2744,2752,2850,2860,2871,2902,2948,3032,3135,3210,3216,3245,3330,3393,3478,3498,3604,3609,3692,3725,3835,3902,4002,4131,4228,4493,4629,4710,4750,4756,4791,4810,4909,4974,5079,5205,5223,5224,5274,5349,5483,5498,5764,5882,6142,6150,6171,6282,6327,6376,6404,6405,6546,6551,6623,6821,6874,7005,7117,7175,7285,7327,7545,7559,7567,7630,7654,7731,7846,8097,8238,8337,8359,8432,8487,8571,8596,8685,8773,8795,8842,8888,8962,8995,8997,9015,9029,9047,9079,9094,9100,9136,9140,9164,9221,9377,9530,9618,9637,9917
